Version identifier: 22.1.0.0 | 2022-03-09 | 1a383f8ce
CPXPARAM_Threads                                 1
CPXPARAM_MIP_Strategy_VariableSelect             3
CPXPARAM_TimeLimit                               599.99998333799999
1 of 1 MIP starts provided solutions.
MIP start 'm1' defined initial solution with objective 1.0000.
Tried aggregator 2 times.
MIP Presolve eliminated 43 rows and 1 columns.
MIP Presolve added 36 rows and 9 columns.
MIP Presolve modified 75 coefficients.
Aggregator did 9 substitutions.
Reduced MIP has 2705 rows, 6300 columns, and 97591 nonzeros.
Reduced MIP has 6300 binaries, 0 generals, 0 SOSs, and 0 indicators.
Presolve time = 0.14 sec. (204.44 ticks)
Probing time = 0.02 sec. (15.65 ticks)
Tried aggregator 1 time.
Detecting symmetries...
MIP Presolve modified 17 coefficients.
Reduced MIP has 2705 rows, 6300 columns, and 97836 nonzeros.
Reduced MIP has 6300 binaries, 0 generals, 0 SOSs, and 0 indicators.
Presolve time = 0.10 sec. (152.22 ticks)
Probing time = 0.02 sec. (15.68 ticks)
Clique table members: 2090.
MIP emphasis: balance optimality and feasibility.
MIP search method: dynamic search.
Parallel mode: none, using 1 thread.
Root relaxation solution time = 1.38 sec. (1499.16 ticks)

        Nodes                                         Cuts/
   Node  Left     Objective  IInf  Best Integer    Best Bound    ItCnt     Gap

*     0+    0                            1.0000    45150.0000              --- 
      0     0      300.0000  1300        1.0000      300.0000     5113     --- 
*     0+    0                          154.0000      300.0000            94.81%
      0     0      300.0000   249      154.0000    Cliques: 2     6326   94.81%
      0     0      300.0000   344      154.0000      Cuts: 76     7738   94.81%
*     0+    0                          300.0000      300.0000             0.00%
      0     0        cutoff            300.0000      300.0000     7738    0.00%
Elapsed time = 18.49 sec. (18027.49 ticks, tree = 0.01 MB, solutions = 3)

Clique cuts applied:  19
Zero-half cuts applied:  8
Lift and project cuts applied:  1
Gomory fractional cuts applied:  2

Root node processing (before b&c):
  Real time             =   18.49 sec. (18028.11 ticks)
Sequential b&c:
  Real time             =    0.00 sec. (0.00 ticks)
                          ------------
Total (root+branch&cut) =   18.49 sec. (18028.11 ticks)
Primal:	300
Dual:	300
Status:	Optimal
Time:	18.51
Sequence:
	8
	11
	4
	5
	19
	5
	5
	11
	8
	4
	15
	8
	0
	5
	19
	0
	5
	19
	0
	4
	9
	12
	2
	10
	12
	2
	1
	17
	7
	9
	16
	7
	9
	16
	15
	1
	16
	15
	5
	8
	11
	5
	8
	0
	2
	8
	11
	5
	8
	15
	0
	8
	15
	0
	14
	7
	9
	16
	15
	1
	16
	15
	1
	17
	7
	9
	16
	15
	1
	17
	7
	1
	6
	15
	0
	8
	15
	3
	17
	18
	2
	16
	18
	5
	16
	18
	3
	17
	18
	3
	17
	18
	2
	0
	19
	4
	0
	19
	3
	3
	17
	18
	3
	17
	18
	3
	17
	18
	3
	17
	7
	1
	17
	7
	1
	17
	3
	9
	12
	4
	9
	12
	5
	9
	16
	15
	1
	17
	7
	9
	16
	15
	1
	17
	7
	9
	16
	15
	1
	16
	15
	1
	17
	5
	9
	12
	3
	9
	7
	17
	1
	7
	17
	3
	18
	17
	3
	18
	0
	6
	18
	0
	6
	10
	11
	6
	10
	11
	6
	10
	11
	6
	3
	13
	6
	2
	13
	6
	2
	13
	14
	5
	13
	14
	5
	13
	14
	4
	1
	11
	6
	10
	11
	6
	10
	11
	6
	10
	11
	6
	10
	11
	5
	8
	11
	4
	8
	11
	4
	14
	13
	4
	14
	13
	4
	14
	13
	4
	14
	13
	4
	14
	18
	0
	14
	18
	2
	16
	18
	2
	6
	13
	2
	6
	13
	4
	14
	13
	2
	6
	13
	4
	6
	13
	4
	14
	1
	15
	16
	9
	7
	17
	5
	9
	12
	2
	10
	12
	2
	4
	19
	5
	0
	19
	5
	0
	19
	4
	0
	19
	3
	2
	12
	10
	5
	12
	9
	3
	11
	8
	4
	11
	8
	4
	11
	8
	2
	0
	19
	4
	0
	19
	3
	0
	19
	5
	0
	6
	10
	15
